-3 2
-5 4
-7 5
-8 6
-9 6
-10 7
-10 7
-11 8
-13 9
-14 11
-14 14
-14 17
-13 19
-12 22
-12 25
-11 28
-10 30
-10 33
-9 37
-7 41
-5 46
-3 50
0 54
3 57
7 59
10 62
12 64
13 66
14 67
16 67
18 68
19 68
20 67
22 67
23 66
25 64
28 63
32 63
37 64
41 64
44 64
48 64
53 63
59 63
64 63
70 62
76 62
83 62
89 62
95 61
220 166
221 161
221 155
220 150
219 145
217 139
216 132
216 126
217 120
217 114
217 108
216 102
214 97
212 93
211 88
210 84
208 80
205 77
201 75
194 72
190 70
187 68
184 66
182 65
179 64
176 64
174 63
173 61
171 59
170 57
170 55
171 54
172 53
174 53
175 52
175 51
176 51
177 50
179 48
181 47
182 45
182 44
182 44
182 44
182 43
181 42
178 43
176 45
174 48
172 51
169 53
166 54
164 55
161 57
157 58
152 58
148 59
144 59
140 59
135 60
129 60
123 59
118 59
113 59
108 60
102 60
